 B Ag                                   
   1.0000000000000000     
     8.6662299995442087    0.0000000000000000    0.0000000000000000
     0.0000000000000000   10.0069004461921178    0.0000000000000000
     0.0000000000000000    0.0000000000000000   25.0000000000000000
   B    Ag
    32    36
Direct
  0.0590737841053084  0.0510127988926143  0.2958071999999987
  0.0790824845447275  0.2317280972733542  0.2870776000000035
  0.2252721194917129  0.9676192995089252  0.2821444000000000
  0.2263844832300990  0.1314233120506785  0.2992172000000011
  0.2303723764664696  0.3068112865226240  0.3058443999999980
  0.3947552742288067  0.8920354557336267  0.3059616000000034
  0.3965922898631575  0.0494511764817531  0.2874424000000033
  0.3992935798129054  0.2129670432377466  0.2985315999999969
  0.5705479776396487  0.9696199189922154  0.2931260000000009
  0.5665681617333291  0.2966463008163132  0.2855660000000029
  0.7302460239726898  0.8783848752432419  0.2947344000000029
  0.7258034924449035  0.0507522786631966  0.2768244000000024
  0.7273035680257181  0.2197183845110260  0.2863928000000016
  0.9032105079615533  0.9731105103284463  0.2770847999999972
  0.8894628922155761  0.1387782368244146  0.2923315999999971
  0.9080015185858059  0.3058229685061491  0.2814040000000020
  0.0643425111068296  0.5514484759464011  0.3137815999999987
  0.0639349521105643  0.7190648131947910  0.3007491999999985
  0.2327805747258154  0.4704073979062358  0.3084363999999979
  0.2313555029240462  0.6354764928654646  0.3052696000000026
  0.2270375930598973  0.8038423129372632  0.3011243999999991
  0.4098437267631709  0.3838231449041274  0.3032395999999977
  0.3903438981169316  0.5547601907154416  0.2894179999999977
  0.3976077256409312  0.7190008573271953  0.2939468000000005
  0.5656104211701987  0.4696529185306701  0.2821544000000031
  0.5669662587143947  0.7980173324337159  0.2883319999999969
  0.7378975633391107  0.3853311043448286  0.2960648000000035
  0.7311402997997121  0.5522259394618843  0.2919723999999988
  0.7343204600310287  0.7176527875554868  0.2848692000000028
  0.9017508190310011  0.4676453038743631  0.2963555999999983
  0.8959847592792229  0.6344072307040634  0.3021224000000018
  0.9029497255913554  0.8069981352790379  0.2866124000000028
  0.1666664743580526  0.0833332963072806  0.0000000000000000
  0.0000000000000000  0.3333329853670435  0.0000000000000000
  0.0000000000000000  0.1666669923387332  0.0943460000000016
  0.1666664743580526  0.4166664815364101  0.0943460000000016
  0.9838568789944944  0.9995003001959475  0.1830763999999974
  0.1612927420658679  0.2489252304841187  0.1915231999999989
  0.1666664743580526  0.5833334738751432  0.0000000000000000
  0.0000000000000000  0.8333329630728201  0.0000000000000000
  0.0000000000000000  0.6666669700445169  0.0943460000000016
  0.1666664743580526  0.9166664592421867  0.0943460000000016
  0.9957547861589049  0.4874076669620493  0.1896172000000007
  0.1550916603956622  0.7583057352076992  0.1948328000000004
  0.4999994230741507  0.0833332963072806  0.0000000000000000
  0.3333329487160981  0.3333329853670435  0.0000000000000000
  0.3333329487160981  0.1666669923387332  0.0943460000000016
  0.4999994230741507  0.4166664815364101  0.0943460000000016
  0.3055827043754036  0.9949724246321168  0.1884384000000026
  0.4701940751877487  0.2619472447132694  0.1839307999999988
  0.4999994230741507  0.5833334738751432  0.0000000000000000
  0.3333329487160981  0.8333329630728201  0.0000000000000000
  0.3333329487160981  0.6666669700445169  0.0943460000000016
  0.4999994230741507  0.9166664592421867  0.0943460000000016
  0.3247767483840178  0.5063895686029625  0.1885395999999986
  0.4973708290948551  0.7649701364734653  0.1899155999999991
  0.8333335256945418  0.0833332963072806  0.0000000000000000
  0.6666670513364963  0.3333329853670435  0.0000000000000000
  0.6666670513364963  0.1666669923387332  0.0943460000000016
  0.8333335256945418  0.4166664815364101  0.0943460000000016
  0.6409119075182801  0.0083315208788477  0.1862560000000002
  0.8109974002962801  0.2669867672178796  0.1865051999999991
  0.8333335256945418  0.5833334738751432  0.0000000000000000
  0.6666670513364963  0.8333329630728201  0.0000000000000000
  0.6666670513364963  0.6666669700445169  0.0943460000000016
  0.8333335256945418  0.9166664592421867  0.0943460000000016
  0.6597724731862300  0.5156241962978072  0.1871579999999966
  0.8387880312872298  0.7413244530500833  0.1856483999999980

  0.00000000E+00  0.00000000E+00  0.00000000E+00
  0.00000000E+00  0.00000000E+00  0.00000000E+00
  0.00000000E+00  0.00000000E+00  0.00000000E+00
  0.00000000E+00  0.00000000E+00  0.00000000E+00
  0.00000000E+00  0.00000000E+00  0.00000000E+00
  0.00000000E+00  0.00000000E+00  0.00000000E+00
  0.00000000E+00  0.00000000E+00  0.00000000E+00
  0.00000000E+00  0.00000000E+00  0.00000000E+00
  0.00000000E+00  0.00000000E+00  0.00000000E+00
  0.00000000E+00  0.00000000E+00  0.00000000E+00
  0.00000000E+00  0.00000000E+00  0.00000000E+00
  0.00000000E+00  0.00000000E+00  0.00000000E+00
  0.00000000E+00  0.00000000E+00  0.00000000E+00
  0.00000000E+00  0.00000000E+00  0.00000000E+00
  0.00000000E+00  0.00000000E+00  0.00000000E+00
  0.00000000E+00  0.00000000E+00  0.00000000E+00
  0.00000000E+00  0.00000000E+00  0.00000000E+00
  0.00000000E+00  0.00000000E+00  0.00000000E+00
  0.00000000E+00  0.00000000E+00  0.00000000E+00
  0.00000000E+00  0.00000000E+00  0.00000000E+00
  0.00000000E+00  0.00000000E+00  0.00000000E+00
  0.00000000E+00  0.00000000E+00  0.00000000E+00
  0.00000000E+00  0.00000000E+00  0.00000000E+00
  0.00000000E+00  0.00000000E+00  0.00000000E+00
  0.00000000E+00  0.00000000E+00  0.00000000E+00
  0.00000000E+00  0.00000000E+00  0.00000000E+00
  0.00000000E+00  0.00000000E+00  0.00000000E+00
  0.00000000E+00  0.00000000E+00  0.00000000E+00
  0.00000000E+00  0.00000000E+00  0.00000000E+00
  0.00000000E+00  0.00000000E+00  0.00000000E+00
  0.00000000E+00  0.00000000E+00  0.00000000E+00
  0.00000000E+00  0.00000000E+00  0.00000000E+00
  0.00000000E+00  0.00000000E+00  0.00000000E+00
  0.00000000E+00  0.00000000E+00  0.00000000E+00
  0.00000000E+00  0.00000000E+00  0.00000000E+00
  0.00000000E+00  0.00000000E+00  0.00000000E+00
  0.00000000E+00  0.00000000E+00  0.00000000E+00
  0.00000000E+00  0.00000000E+00  0.00000000E+00
  0.00000000E+00  0.00000000E+00  0.00000000E+00
  0.00000000E+00  0.00000000E+00  0.00000000E+00
  0.00000000E+00  0.00000000E+00  0.00000000E+00
  0.00000000E+00  0.00000000E+00  0.00000000E+00
  0.00000000E+00  0.00000000E+00  0.00000000E+00
  0.00000000E+00  0.00000000E+00  0.00000000E+00
  0.00000000E+00  0.00000000E+00  0.00000000E+00
  0.00000000E+00  0.00000000E+00  0.00000000E+00
  0.00000000E+00  0.00000000E+00  0.00000000E+00
  0.00000000E+00  0.00000000E+00  0.00000000E+00
  0.00000000E+00  0.00000000E+00  0.00000000E+00
  0.00000000E+00  0.00000000E+00  0.00000000E+00
  0.00000000E+00  0.00000000E+00  0.00000000E+00
  0.00000000E+00  0.00000000E+00  0.00000000E+00
  0.00000000E+00  0.00000000E+00  0.00000000E+00
  0.00000000E+00  0.00000000E+00  0.00000000E+00
  0.00000000E+00  0.00000000E+00  0.00000000E+00
  0.00000000E+00  0.00000000E+00  0.00000000E+00
  0.00000000E+00  0.00000000E+00  0.00000000E+00
  0.00000000E+00  0.00000000E+00  0.00000000E+00
  0.00000000E+00  0.00000000E+00  0.00000000E+00
  0.00000000E+00  0.00000000E+00  0.00000000E+00
  0.00000000E+00  0.00000000E+00  0.00000000E+00
  0.00000000E+00  0.00000000E+00  0.00000000E+00
  0.00000000E+00  0.00000000E+00  0.00000000E+00
  0.00000000E+00  0.00000000E+00  0.00000000E+00
  0.00000000E+00  0.00000000E+00  0.00000000E+00
  0.00000000E+00  0.00000000E+00  0.00000000E+00
  0.00000000E+00  0.00000000E+00  0.00000000E+00
  0.00000000E+00  0.00000000E+00  0.00000000E+00
