 B Ag                                   
   1.0000000000000000     
    11.5549733327256110    0.0000000000000000    0.0000000000000000
     0.0000000000000000   10.0069004461921178    0.0000000000000000
     0.0000000000000000    0.0000000000000000   25.0000000000000000
   B    Ag
    32    48
Direct
  0.0531780543586109  0.0180275155906600  0.2753736000000018
  0.0059131826017165  0.3601624718242746  0.2719627999999972
  0.1699095223733309  0.1270233482220462  0.2726048000000034
  0.1053113637704044  0.4819284478677019  0.2845775999999987
  0.0891668003319381  0.6499505051511676  0.2698687999999976
  0.9653505619444687  0.7204608498671945  0.2950931999999966
  0.2227041054877930  0.5735492254431307  0.2760168000000007
  0.1806953542754286  0.9363758588770210  0.2756535999999983
  0.2890867770797385  0.2318190345225943  0.2788024000000036
  0.2300273590828823  0.3952602527893774  0.2733928000000034
  0.4238365471713976  0.1653738846407435  0.2786639999999991
  0.6156301529362338  0.3941220382082236  0.2840216000000026
  0.3332192891432442  0.7013130626947017  0.2811468000000019
  0.3204308563407707  0.8792942477356434  0.2820084000000023
  0.4710162319964581  0.6572924388892929  0.2800459999999987
  0.4309901768354223  0.9930867258484142  0.2803320000000014
  0.5472483421567915  0.0895673945013655  0.2877635999999981
  0.5479519352994018  0.2501293995537281  0.2843644000000012
  0.6873992497675800  0.0247932915225917  0.2799136000000004
  0.7454175576161433  0.3225484271933823  0.2784008000000000
  0.5885180176695357  0.7381886169169363  0.2959731999999988
  0.5749922400238745  0.9141451990242331  0.2818060000000031
  0.5993099075691717  0.5701935410151151  0.2755688000000021
  0.7135888385520843  0.8534930517121282  0.2808279999999996
  0.7734288728031160  0.1576382225927162  0.2728299999999990
  0.8859129056583797  0.2603923176822960  0.2805984000000024
  0.0217072476112108  0.1805464149178704  0.2730048000000025
  0.8707852203780533  0.4317051042157516  0.2808440000000019
  0.7209570944145938  0.6633302725146919  0.2771807999999965
  0.8313035195672072  0.7660493917391804  0.2866688000000011
  0.8613044542312593  0.6015129292397887  0.2885235999999978
  0.0647052120737044  0.8285932336975748  0.2685683999999995
  0.1249998557685359  0.0833332963072806  0.0000000000000000
  0.0000000000000000  0.3333329853670435  0.0000000000000000
  0.0000000000000000  0.1666669923387332  0.0943460000000016
  0.1249998557685359  0.4166664815364101  0.0943460000000016
  0.9976656516679938  0.9938317963357477  0.1909044000000009
  0.1387342016151436  0.2473693041427154  0.1896407999999994
  0.1249998557685359  0.5833334738751432  0.0000000000000000
  0.0000000000000000  0.8333329630728201  0.0000000000000000
  0.0000000000000000  0.6666669700445169  0.0943460000000016
  0.1249998557685359  0.9166664592421867  0.0943460000000016
  0.9944722215373076  0.4864783082610202  0.1945195999999996
  0.1274144005014932  0.7487803081773734  0.1854572000000019
  0.3749995673056148  0.0833332963072806  0.0000000000000000
  0.2499997115370718  0.3333329853670435  0.0000000000000000
  0.2499997115370718  0.1666669923387332  0.0943460000000016
  0.3749995673056148  0.4166664815364101  0.0943460000000016
  0.2536215286365149  0.9951632929244809  0.1885112000000007
  0.3854392279198322  0.2396376393364150  0.1875136000000026
  0.3749995673056148  0.5833334738751432  0.0000000000000000
  0.2499997115370718  0.8333329630728201  0.0000000000000000
  0.2499997115370718  0.6666669700445169  0.0943460000000016
  0.3749995673056148  0.9166664592421867  0.0943460000000016
  0.2475843013758947  0.5022873992828281  0.1877404000000027
  0.3750584164245510  0.7418900627541518  0.1888179999999977
  0.6250001442709063  0.0833332963072806  0.0000000000000000
  0.5000002885023704  0.3333329853670435  0.0000000000000000
  0.5000002885023704  0.1666669923387332  0.0943460000000016
  0.6250001442709063  0.4166664815364101  0.0943460000000016
  0.5036186438889274  0.9812908655183676  0.1891579999999990
  0.6258413405004575  0.2329142787552101  0.1908904000000007
  0.6250001442709063  0.5833334738751432  0.0000000000000000
  0.5000002885023704  0.8333329630728201  0.0000000000000000
  0.5000002885023704  0.6666669700445169  0.0943460000000016
  0.6250001442709063  0.9166664592421867  0.0943460000000016
  0.5100055041502998  0.4850792736573197  0.1976968000000028
  0.6360153146512246  0.7343102931333902  0.1890536000000012
  0.8749998558079852  0.0833332963072806  0.0000000000000000
  0.7500000000394422  0.3333329853670435  0.0000000000000000
  0.7500000000394422  0.1666669923387332  0.0943460000000016
  0.8749998558079852  0.4166664815364101  0.0943460000000016
  0.7511986181237305  0.9844446892392824  0.1917868000000027
  0.8810232362170822  0.2358792328046206  0.1819592000000014
  0.8749998558079852  0.5833334738751432  0.0000000000000000
  0.7500000000394422  0.8333329630728201  0.0000000000000000
  0.7500000000394422  0.6666669700445169  0.0943460000000016
  0.8749998558079852  0.9166664592421867  0.0943460000000016
  0.7526352289684297  0.4719653228684990  0.1939216000000030
  0.8812742104007967  0.7376310016963146  0.1869348000000031

  0.00000000E+00  0.00000000E+00  0.00000000E+00
  0.00000000E+00  0.00000000E+00  0.00000000E+00
  0.00000000E+00  0.00000000E+00  0.00000000E+00
  0.00000000E+00  0.00000000E+00  0.00000000E+00
  0.00000000E+00  0.00000000E+00  0.00000000E+00
  0.00000000E+00  0.00000000E+00  0.00000000E+00
  0.00000000E+00  0.00000000E+00  0.00000000E+00
  0.00000000E+00  0.00000000E+00  0.00000000E+00
  0.00000000E+00  0.00000000E+00  0.00000000E+00
  0.00000000E+00  0.00000000E+00  0.00000000E+00
  0.00000000E+00  0.00000000E+00  0.00000000E+00
  0.00000000E+00  0.00000000E+00  0.00000000E+00
  0.00000000E+00  0.00000000E+00  0.00000000E+00
  0.00000000E+00  0.00000000E+00  0.00000000E+00
  0.00000000E+00  0.00000000E+00  0.00000000E+00
  0.00000000E+00  0.00000000E+00  0.00000000E+00
  0.00000000E+00  0.00000000E+00  0.00000000E+00
  0.00000000E+00  0.00000000E+00  0.00000000E+00
  0.00000000E+00  0.00000000E+00  0.00000000E+00
  0.00000000E+00  0.00000000E+00  0.00000000E+00
  0.00000000E+00  0.00000000E+00  0.00000000E+00
  0.00000000E+00  0.00000000E+00  0.00000000E+00
  0.00000000E+00  0.00000000E+00  0.00000000E+00
  0.00000000E+00  0.00000000E+00  0.00000000E+00
  0.00000000E+00  0.00000000E+00  0.00000000E+00
  0.00000000E+00  0.00000000E+00  0.00000000E+00
  0.00000000E+00  0.00000000E+00  0.00000000E+00
  0.00000000E+00  0.00000000E+00  0.00000000E+00
  0.00000000E+00  0.00000000E+00  0.00000000E+00
  0.00000000E+00  0.00000000E+00  0.00000000E+00
  0.00000000E+00  0.00000000E+00  0.00000000E+00
  0.00000000E+00  0.00000000E+00  0.00000000E+00
  0.00000000E+00  0.00000000E+00  0.00000000E+00
  0.00000000E+00  0.00000000E+00  0.00000000E+00
  0.00000000E+00  0.00000000E+00  0.00000000E+00
  0.00000000E+00  0.00000000E+00  0.00000000E+00
  0.00000000E+00  0.00000000E+00  0.00000000E+00
  0.00000000E+00  0.00000000E+00  0.00000000E+00
  0.00000000E+00  0.00000000E+00  0.00000000E+00
  0.00000000E+00  0.00000000E+00  0.00000000E+00
  0.00000000E+00  0.00000000E+00  0.00000000E+00
  0.00000000E+00  0.00000000E+00  0.00000000E+00
  0.00000000E+00  0.00000000E+00  0.00000000E+00
  0.00000000E+00  0.00000000E+00  0.00000000E+00
  0.00000000E+00  0.00000000E+00  0.00000000E+00
  0.00000000E+00  0.00000000E+00  0.00000000E+00
  0.00000000E+00  0.00000000E+00  0.00000000E+00
  0.00000000E+00  0.00000000E+00  0.00000000E+00
  0.00000000E+00  0.00000000E+00  0.00000000E+00
  0.00000000E+00  0.00000000E+00  0.00000000E+00
  0.00000000E+00  0.00000000E+00  0.00000000E+00
  0.00000000E+00  0.00000000E+00  0.00000000E+00
  0.00000000E+00  0.00000000E+00  0.00000000E+00
  0.00000000E+00  0.00000000E+00  0.00000000E+00
  0.00000000E+00  0.00000000E+00  0.00000000E+00
  0.00000000E+00  0.00000000E+00  0.00000000E+00
  0.00000000E+00  0.00000000E+00  0.00000000E+00
  0.00000000E+00  0.00000000E+00  0.00000000E+00
  0.00000000E+00  0.00000000E+00  0.00000000E+00
  0.00000000E+00  0.00000000E+00  0.00000000E+00
  0.00000000E+00  0.00000000E+00  0.00000000E+00
  0.00000000E+00  0.00000000E+00  0.00000000E+00
  0.00000000E+00  0.00000000E+00  0.00000000E+00
  0.00000000E+00  0.00000000E+00  0.00000000E+00
  0.00000000E+00  0.00000000E+00  0.00000000E+00
  0.00000000E+00  0.00000000E+00  0.00000000E+00
  0.00000000E+00  0.00000000E+00  0.00000000E+00
  0.00000000E+00  0.00000000E+00  0.00000000E+00
  0.00000000E+00  0.00000000E+00  0.00000000E+00
  0.00000000E+00  0.00000000E+00  0.00000000E+00
  0.00000000E+00  0.00000000E+00  0.00000000E+00
  0.00000000E+00  0.00000000E+00  0.00000000E+00
  0.00000000E+00  0.00000000E+00  0.00000000E+00
  0.00000000E+00  0.00000000E+00  0.00000000E+00
  0.00000000E+00  0.00000000E+00  0.00000000E+00
  0.00000000E+00  0.00000000E+00  0.00000000E+00
  0.00000000E+00  0.00000000E+00  0.00000000E+00
  0.00000000E+00  0.00000000E+00  0.00000000E+00
  0.00000000E+00  0.00000000E+00  0.00000000E+00
  0.00000000E+00  0.00000000E+00  0.00000000E+00
