 B Ag                                   
   1.0000000000000000     
     8.6662299995442087    0.0000000000000000    0.0000000000000000
     0.0000000000000000   10.0069004461921178    0.0000000000000000
     0.0000000000000000    0.0000000000000000   25.0000000000000000
   B    Ag
    30    36
Direct
  0.4207804316515720  0.6050095164386065  0.3017240000000001
  0.4184483910755574  0.7727207881779634  0.2990783999999991
  0.4160286537732816  0.9443403630138008  0.2999859999999970
  0.4099498859581203  0.1067983044047054  0.2854367999999994
  0.4130550424103987  0.2794631579515894  0.2877280000000013
  0.5791872590808183  0.5234078252465366  0.2814667999999969
  0.5703633529527821  0.6858637234281346  0.2850928000000010
  0.5795299686558195  0.0217249641861486  0.2860456000000013
  0.5779618127217319  0.1944628119829517  0.2802963999999974
  0.5807958016651682  0.3522279470004364  0.2954428000000036
  0.7495012249088262  0.4421908685704778  0.2852135999999987
  0.7415150532974550  0.6071360490362352  0.2705515999999974
  0.7427289606136185  0.7579689675923831  0.2950427999999974
  0.7380718028873474  0.9380956721291440  0.2826888000000025
  0.7561569448704546  0.2659784629927842  0.2838604000000018
  0.9155526682787425  0.6885138946917166  0.2855819999999980
  0.9069353110191400  0.8512486004836219  0.2943780000000018
  0.9178881705676361  0.0095433700296468  0.2855447999999967
  0.9215841260178905  0.1742817378245860  0.2712512000000018
  0.9193640141582975  0.3589393158564675  0.2646080000000026
  0.0857889762952411  0.4305878751536554  0.2858036000000013
  0.0711605854024668  0.6041900818850152  0.2900107999999975
  0.0844153686249385  0.9374131431046209  0.3096439999999987
  0.0750172797207327  0.1049885532137793  0.3043979999999991
  0.0785700356482337  0.2675074079525430  0.2869815999999972
  0.2482878945185121  0.5304519644761641  0.2944180000000003
  0.2484932894826528  0.6907713369558266  0.2921732000000006
  0.2501249101528558  0.8568217547585064  0.3050124000000025
  0.2430526307414880  0.0267415025508413  0.2875712000000021
  0.2476059370813886  0.3590152634492441  0.2825508000000028
  0.1666664743580526  0.0833332963072806  0.0000000000000000
  0.0000000000000000  0.3333329853670435  0.0000000000000000
  0.0000000000000000  0.1666669923387332  0.0943460000000016
  0.1666664743580526  0.4166664815364101  0.0943460000000016
  0.0001545274011931  0.9883822167887928  0.1828423999999984
  0.1767573673997305  0.2680020666159919  0.1868983999999969
  0.1666664743580526  0.5833334738751432  0.0000000000000000
  0.0000000000000000  0.8333329630728201  0.0000000000000000
  0.0000000000000000  0.6666669700445169  0.0943460000000016
  0.1666664743580526  0.9166664592421867  0.0943460000000016
  0.0084813811777309  0.5034026297240644  0.1903307999999981
  0.1739614572979562  0.7566608702379227  0.1975091999999989
  0.4999994230741507  0.0833332963072806  0.0000000000000000
  0.3333329487160981  0.3333329853670435  0.0000000000000000
  0.3333329487160981  0.1666669923387332  0.0943460000000016
  0.4999994230741507  0.4166664815364101  0.0943460000000016
  0.3481606188802644  0.0250326817134692  0.1893308000000005
  0.5165198708360421  0.2588513809973705  0.1882891999999998
  0.4999994230741507  0.5833334738751432  0.0000000000000000
  0.3333329487160981  0.8333329630728201  0.0000000000000000
  0.3333329487160981  0.6666669700445169  0.0943460000000016
  0.4999994230741507  0.9166664592421867  0.0943460000000016
  0.3278807509320032  0.5096982854407131  0.1854311999999965
  0.5091233443183540  0.7567188302429315  0.1909419999999997
  0.8333335256945418  0.0833332963072806  0.0000000000000000
  0.6666670513364963  0.3333329853670435  0.0000000000000000
  0.6666670513364963  0.1666669923387332  0.0943460000000016
  0.8333335256945418  0.4166664815364101  0.0943460000000016
  0.6799842607812110  0.0049865144633117  0.1883756000000005
  0.8313165009905035  0.2485045207925793  0.1850060000000013
  0.8333335256945418  0.5833334738751432  0.0000000000000000
  0.6666670513364963  0.8333329630728201  0.0000000000000000
  0.6666670513364963  0.6666669700445169  0.0943460000000016
  0.8333335256945418  0.9166664592421867  0.0943460000000016
  0.6637719054655307  0.5003987025678356  0.1911916000000033
  0.8335723838831797  0.7274120532267219  0.1907172000000017

  0.00000000E+00  0.00000000E+00  0.00000000E+00
  0.00000000E+00  0.00000000E+00  0.00000000E+00
  0.00000000E+00  0.00000000E+00  0.00000000E+00
  0.00000000E+00  0.00000000E+00  0.00000000E+00
  0.00000000E+00  0.00000000E+00  0.00000000E+00
  0.00000000E+00  0.00000000E+00  0.00000000E+00
  0.00000000E+00  0.00000000E+00  0.00000000E+00
  0.00000000E+00  0.00000000E+00  0.00000000E+00
  0.00000000E+00  0.00000000E+00  0.00000000E+00
  0.00000000E+00  0.00000000E+00  0.00000000E+00
  0.00000000E+00  0.00000000E+00  0.00000000E+00
  0.00000000E+00  0.00000000E+00  0.00000000E+00
  0.00000000E+00  0.00000000E+00  0.00000000E+00
  0.00000000E+00  0.00000000E+00  0.00000000E+00
  0.00000000E+00  0.00000000E+00  0.00000000E+00
  0.00000000E+00  0.00000000E+00  0.00000000E+00
  0.00000000E+00  0.00000000E+00  0.00000000E+00
  0.00000000E+00  0.00000000E+00  0.00000000E+00
  0.00000000E+00  0.00000000E+00  0.00000000E+00
  0.00000000E+00  0.00000000E+00  0.00000000E+00
  0.00000000E+00  0.00000000E+00  0.00000000E+00
  0.00000000E+00  0.00000000E+00  0.00000000E+00
  0.00000000E+00  0.00000000E+00  0.00000000E+00
  0.00000000E+00  0.00000000E+00  0.00000000E+00
  0.00000000E+00  0.00000000E+00  0.00000000E+00
  0.00000000E+00  0.00000000E+00  0.00000000E+00
  0.00000000E+00  0.00000000E+00  0.00000000E+00
  0.00000000E+00  0.00000000E+00  0.00000000E+00
  0.00000000E+00  0.00000000E+00  0.00000000E+00
  0.00000000E+00  0.00000000E+00  0.00000000E+00
  0.00000000E+00  0.00000000E+00  0.00000000E+00
  0.00000000E+00  0.00000000E+00  0.00000000E+00
  0.00000000E+00  0.00000000E+00  0.00000000E+00
  0.00000000E+00  0.00000000E+00  0.00000000E+00
  0.00000000E+00  0.00000000E+00  0.00000000E+00
  0.00000000E+00  0.00000000E+00  0.00000000E+00
  0.00000000E+00  0.00000000E+00  0.00000000E+00
  0.00000000E+00  0.00000000E+00  0.00000000E+00
  0.00000000E+00  0.00000000E+00  0.00000000E+00
  0.00000000E+00  0.00000000E+00  0.00000000E+00
  0.00000000E+00  0.00000000E+00  0.00000000E+00
  0.00000000E+00  0.00000000E+00  0.00000000E+00
  0.00000000E+00  0.00000000E+00  0.00000000E+00
  0.00000000E+00  0.00000000E+00  0.00000000E+00
  0.00000000E+00  0.00000000E+00  0.00000000E+00
  0.00000000E+00  0.00000000E+00  0.00000000E+00
  0.00000000E+00  0.00000000E+00  0.00000000E+00
  0.00000000E+00  0.00000000E+00  0.00000000E+00
  0.00000000E+00  0.00000000E+00  0.00000000E+00
  0.00000000E+00  0.00000000E+00  0.00000000E+00
  0.00000000E+00  0.00000000E+00  0.00000000E+00
  0.00000000E+00  0.00000000E+00  0.00000000E+00
  0.00000000E+00  0.00000000E+00  0.00000000E+00
  0.00000000E+00  0.00000000E+00  0.00000000E+00
  0.00000000E+00  0.00000000E+00  0.00000000E+00
  0.00000000E+00  0.00000000E+00  0.00000000E+00
  0.00000000E+00  0.00000000E+00  0.00000000E+00
  0.00000000E+00  0.00000000E+00  0.00000000E+00
  0.00000000E+00  0.00000000E+00  0.00000000E+00
  0.00000000E+00  0.00000000E+00  0.00000000E+00
  0.00000000E+00  0.00000000E+00  0.00000000E+00
  0.00000000E+00  0.00000000E+00  0.00000000E+00
  0.00000000E+00  0.00000000E+00  0.00000000E+00
  0.00000000E+00  0.00000000E+00  0.00000000E+00
  0.00000000E+00  0.00000000E+00  0.00000000E+00
  0.00000000E+00  0.00000000E+00  0.00000000E+00
