 B Ag                                   
   1.0000000000000000     
    11.5549733327256110    0.0000000000000000    0.0000000000000000
     0.0000000000000000   10.0069004461921178    0.0000000000000000
     0.0000000000000000    0.0000000000000000   25.0000000000000000
   B    Ag
    40    48
Direct
  0.0028009497787735  0.0829088891671432  0.2959016000000005
  0.0054677062577966  0.2478579669435845  0.3074391999999975
  0.1255623841113405  0.0003441625125120  0.2948716000000005
  0.1259267293918356  0.3348359482555878  0.3003795999999994
  0.2548971698323470  0.9214721431058948  0.2891228000000012
  0.2473177494842318  0.0951146666360785  0.2893528000000032
  0.2554873918781837  0.2529804322139881  0.2980304000000018
  0.3701081670078779  0.0045368247692679  0.2771571999999978
  0.3857291463734285  0.1633053120481307  0.3015135999999998
  0.3790315973811857  0.3363259201085285  0.2832891999999987
  0.0062743372842462  0.5817725509815901  0.2891487999999995
  0.0131847123842803  0.7543164879662996  0.2838660000000033
  0.1283819492511213  0.5058249582093239  0.2964887999999988
  0.1284511835086946  0.8376220034435917  0.2973908000000023
  0.2506288778527974  0.4185691685974433  0.2946511999999970
  0.2549672695181400  0.5827548731354710  0.2779371999999967
  0.2524419499730612  0.7557025315343893  0.2823283999999973
  0.3801471343563776  0.5024083158450026  0.2778696000000025
  0.3811692050838431  0.6677142473764235  0.2901895999999979
  0.3827477461565678  0.8354584963600118  0.2850871999999995
  0.5061327128671493  0.0761703390673816  0.2915655999999984
  0.5107999672559842  0.2498535898747178  0.2898544000000030
  0.6255851737474245  0.9982604503668639  0.2805448000000013
  0.6295825866942124  0.3307127934163958  0.2906467999999975
  0.7614747128044215  0.9137854472689995  0.2767723999999987
  0.7541298235038454  0.0844102531589996  0.2753864000000021
  0.7533639195294128  0.2511237134327899  0.2943604000000022
  0.8856446229102701  0.9999999554115533  0.2798680000000004
  0.8776047947492742  0.1696559298384983  0.2944851999999969
  0.8854282658553458  0.3373901857177728  0.2984176000000005
  0.5067047609203712  0.5760574946254735  0.2868027999999967
  0.5074836463181001  0.7478069798173692  0.2813811999999984
  0.6288478381356839  0.5020235813289844  0.2824588000000006
  0.6301390570394787  0.8272661494449167  0.2771779999999993
  0.7558234665297974  0.4212193398610182  0.2899400000000014
  0.7557525014157775  0.5940181010056875  0.2842947999999978
  0.7626949665941964  0.7512585980467819  0.2637155999999976
  0.8846580347398145  0.5053672740318262  0.2889684000000017
  0.8832993124348860  0.6712258242317120  0.2885423999999972
  0.8867610253136817  0.8311334808137190  0.2716935999999990
  0.1249998557685359  0.0833332963072806  0.0000000000000000
  0.0000000000000000  0.3333329853670435  0.0000000000000000
  0.0000000000000000  0.1666669923387332  0.0943460000000016
  0.1249998557685359  0.4166664815364101  0.0943460000000016
  0.9977695030543572  0.0005374881092237  0.1911535999999998
  0.1101941097859438  0.2540267102354647  0.2070036000000002
  0.1249998557685359  0.5833334738751432  0.0000000000000000
  0.0000000000000000  0.8333329630728201  0.0000000000000000
  0.0000000000000000  0.6666669700445169  0.0943460000000016
  0.1249998557685359  0.9166664592421867  0.0943460000000016
  0.0015344128878070  0.5012900874724764  0.2010012000000003
  0.1205290535855781  0.7547042204136076  0.1877372000000008
  0.3749995673056148  0.0833332963072806  0.0000000000000000
  0.2499997115370718  0.3333329853670435  0.0000000000000000
  0.2499997115370718  0.1666669923387332  0.0943460000000016
  0.3749995673056148  0.4166664815364101  0.0943460000000016
  0.2433523573815748  0.0282559021667481  0.1891043999999980
  0.3839792505131996  0.2570346346334205  0.1828647999999973
  0.3749995673056148  0.5833334738751432  0.0000000000000000
  0.2499997115370718  0.8333329630728201  0.0000000000000000
  0.2499997115370718  0.6666669700445169  0.0943460000000016
  0.3749995673056148  0.9166664592421867  0.0943460000000016
  0.2463225070315787  0.5017557661334209  0.1844287999999992
  0.3787996626183059  0.7543754472817383  0.1866995999999972
  0.6250001442709063  0.0833332963072806  0.0000000000000000
  0.5000002885023704  0.3333329853670435  0.0000000000000000
  0.5000002885023704  0.1666669923387332  0.0943460000000016
  0.6250001442709063  0.4166664815364101  0.0943460000000016
  0.4986381044845629  0.9928855592815395  0.1989212000000009
  0.6220576883239346  0.2503132726730755  0.1962872000000004
  0.6250001442709063  0.5833334738751432  0.0000000000000000
  0.5000002885023704  0.8333329630728201  0.0000000000000000
  0.5000002885023704  0.6666669700445169  0.0943460000000016
  0.6250001442709063  0.9166664592421867  0.0943460000000016
  0.4943014436756599  0.5123984222258500  0.1920596000000003
  0.6357478973313420  0.7372402713177095  0.1863547999999966
  0.8749998558079852  0.0833332963072806  0.0000000000000000
  0.7500000000394422  0.3333329853670435  0.0000000000000000
  0.7500000000394422  0.1666669923387332  0.0943460000000016
  0.8749998558079852  0.4166664815364101  0.0943460000000016
  0.7467529133591384  0.0145499152900328  0.1843271999999985
  0.8806078306716287  0.2520420797190752  0.1841852000000017
  0.8749998558079852  0.5833334738751432  0.0000000000000000
  0.7500000000394422  0.8333329630728201  0.0000000000000000
  0.7500000000394422  0.6666669700445169  0.0943460000000016
  0.8749998558079852  0.9166664592421867  0.0943460000000016
  0.7509286045191814  0.4969770636513573  0.1817968000000008
  0.8860513741735261  0.7472883377035657  0.1839512000000028

  0.00000000E+00  0.00000000E+00  0.00000000E+00
  0.00000000E+00  0.00000000E+00  0.00000000E+00
  0.00000000E+00  0.00000000E+00  0.00000000E+00
  0.00000000E+00  0.00000000E+00  0.00000000E+00
  0.00000000E+00  0.00000000E+00  0.00000000E+00
  0.00000000E+00  0.00000000E+00  0.00000000E+00
  0.00000000E+00  0.00000000E+00  0.00000000E+00
  0.00000000E+00  0.00000000E+00  0.00000000E+00
  0.00000000E+00  0.00000000E+00  0.00000000E+00
  0.00000000E+00  0.00000000E+00  0.00000000E+00
  0.00000000E+00  0.00000000E+00  0.00000000E+00
  0.00000000E+00  0.00000000E+00  0.00000000E+00
  0.00000000E+00  0.00000000E+00  0.00000000E+00
  0.00000000E+00  0.00000000E+00  0.00000000E+00
  0.00000000E+00  0.00000000E+00  0.00000000E+00
  0.00000000E+00  0.00000000E+00  0.00000000E+00
  0.00000000E+00  0.00000000E+00  0.00000000E+00
  0.00000000E+00  0.00000000E+00  0.00000000E+00
  0.00000000E+00  0.00000000E+00  0.00000000E+00
  0.00000000E+00  0.00000000E+00  0.00000000E+00
  0.00000000E+00  0.00000000E+00  0.00000000E+00
  0.00000000E+00  0.00000000E+00  0.00000000E+00
  0.00000000E+00  0.00000000E+00  0.00000000E+00
  0.00000000E+00  0.00000000E+00  0.00000000E+00
  0.00000000E+00  0.00000000E+00  0.00000000E+00
  0.00000000E+00  0.00000000E+00  0.00000000E+00
  0.00000000E+00  0.00000000E+00  0.00000000E+00
  0.00000000E+00  0.00000000E+00  0.00000000E+00
  0.00000000E+00  0.00000000E+00  0.00000000E+00
  0.00000000E+00  0.00000000E+00  0.00000000E+00
  0.00000000E+00  0.00000000E+00  0.00000000E+00
  0.00000000E+00  0.00000000E+00  0.00000000E+00
  0.00000000E+00  0.00000000E+00  0.00000000E+00
  0.00000000E+00  0.00000000E+00  0.00000000E+00
  0.00000000E+00  0.00000000E+00  0.00000000E+00
  0.00000000E+00  0.00000000E+00  0.00000000E+00
  0.00000000E+00  0.00000000E+00  0.00000000E+00
  0.00000000E+00  0.00000000E+00  0.00000000E+00
  0.00000000E+00  0.00000000E+00  0.00000000E+00
  0.00000000E+00  0.00000000E+00  0.00000000E+00
  0.00000000E+00  0.00000000E+00  0.00000000E+00
  0.00000000E+00  0.00000000E+00  0.00000000E+00
  0.00000000E+00  0.00000000E+00  0.00000000E+00
  0.00000000E+00  0.00000000E+00  0.00000000E+00
  0.00000000E+00  0.00000000E+00  0.00000000E+00
  0.00000000E+00  0.00000000E+00  0.00000000E+00
  0.00000000E+00  0.00000000E+00  0.00000000E+00
  0.00000000E+00  0.00000000E+00  0.00000000E+00
  0.00000000E+00  0.00000000E+00  0.00000000E+00
  0.00000000E+00  0.00000000E+00  0.00000000E+00
  0.00000000E+00  0.00000000E+00  0.00000000E+00
  0.00000000E+00  0.00000000E+00  0.00000000E+00
  0.00000000E+00  0.00000000E+00  0.00000000E+00
  0.00000000E+00  0.00000000E+00  0.00000000E+00
  0.00000000E+00  0.00000000E+00  0.00000000E+00
  0.00000000E+00  0.00000000E+00  0.00000000E+00
  0.00000000E+00  0.00000000E+00  0.00000000E+00
  0.00000000E+00  0.00000000E+00  0.00000000E+00
  0.00000000E+00  0.00000000E+00  0.00000000E+00
  0.00000000E+00  0.00000000E+00  0.00000000E+00
  0.00000000E+00  0.00000000E+00  0.00000000E+00
  0.00000000E+00  0.00000000E+00  0.00000000E+00
  0.00000000E+00  0.00000000E+00  0.00000000E+00
  0.00000000E+00  0.00000000E+00  0.00000000E+00
  0.00000000E+00  0.00000000E+00  0.00000000E+00
  0.00000000E+00  0.00000000E+00  0.00000000E+00
  0.00000000E+00  0.00000000E+00  0.00000000E+00
  0.00000000E+00  0.00000000E+00  0.00000000E+00
  0.00000000E+00  0.00000000E+00  0.00000000E+00
  0.00000000E+00  0.00000000E+00  0.00000000E+00
  0.00000000E+00  0.00000000E+00  0.00000000E+00
  0.00000000E+00  0.00000000E+00  0.00000000E+00
  0.00000000E+00  0.00000000E+00  0.00000000E+00
  0.00000000E+00  0.00000000E+00  0.00000000E+00
  0.00000000E+00  0.00000000E+00  0.00000000E+00
  0.00000000E+00  0.00000000E+00  0.00000000E+00
  0.00000000E+00  0.00000000E+00  0.00000000E+00
  0.00000000E+00  0.00000000E+00  0.00000000E+00
  0.00000000E+00  0.00000000E+00  0.00000000E+00
  0.00000000E+00  0.00000000E+00  0.00000000E+00
  0.00000000E+00  0.00000000E+00  0.00000000E+00
  0.00000000E+00  0.00000000E+00  0.00000000E+00
  0.00000000E+00  0.00000000E+00  0.00000000E+00
  0.00000000E+00  0.00000000E+00  0.00000000E+00
  0.00000000E+00  0.00000000E+00  0.00000000E+00
  0.00000000E+00  0.00000000E+00  0.00000000E+00
  0.00000000E+00  0.00000000E+00  0.00000000E+00
  0.00000000E+00  0.00000000E+00  0.00000000E+00
