 B Ag                                   
   1.00000000000000     
     8.6662299995442087    0.0000000000000000    0.0000000000000000
     0.0000000000000000   10.0069004461921178    0.0000000000000000
     0.0000000000000000    0.0000000000000000   25.0000000000000000
   B    Ag
    27    36
Direct
  0.3590753995870912  0.9301681424783226  0.2899951999999999
  0.5285389379512111  0.8475051836082983  0.2844911999999979
  0.5276792792529719  0.0147174443067470  0.2877172000000030
  0.3709513825699418  0.2707131958158797  0.2824832000000015
  0.5399637443555179  0.1816546501860827  0.2842636000000027
  0.5384486680189013  0.3499185405938974  0.2840035999999984
  0.3673615863146296  0.5924391905243667  0.2867340000000027
  0.5429004307810246  0.5136235768145170  0.2970747999999972
  0.5327229949173784  0.6815117265001973  0.2800275999999968
  0.6985367340029498  0.9261958835142465  0.2913095999999982
  0.8668936781501415  0.8420799272772328  0.2819992000000013
  0.8662497995546872  0.0159397008951672  0.2833928000000014
  0.7051705297830111  0.2669168154876971  0.2880576000000019
  0.8662244136602411  0.1724030342139073  0.2807444000000032
  0.8765795507850029  0.3523938325320159  0.2849572000000009
  0.6972005128317349  0.6017317782242273  0.2856179999999995
  0.8705723250360080  0.5152644445425736  0.2768856000000000
  0.8710165781887866  0.6818854686014717  0.2734868000000006
  0.0313668111755945  0.9267125270071830  0.2859800000000021
  0.1872982831156520  0.8443843371316149  0.2751480000000015
  0.1969956947934435  0.0144586229050603  0.2822504000000023
  0.0426330711300551  0.2672226044796489  0.2877504000000002
  0.2061565409750230  0.1818675033079344  0.2786187999999967
  0.2043841439810805  0.3498605805888886  0.2709996000000032
  0.0425429512047799  0.5947795755542700  0.2850451999999990
  0.2087516717298215  0.5148447341614641  0.2728591999999992
  0.2038475784848686  0.6816496313397096  0.2826072000000011
  0.1302192533615383  0.1204149083404289  0.9937680000000029
  0.9618692326926919  0.3497816350648222  0.9971480000000028
  0.9745414096376592  0.1919955145282870  0.0991056000000015
  0.1329378518756812  0.4393418345310849  0.0933464000000015
  0.9814279104578745  0.0299515321064305  0.1867852000000028
  0.1216872850196040  0.2729896249781802  0.1893391999999992
  0.1427275758969060  0.5877504259811133  0.9955920000000020
  0.9603299243659222  0.8490231361533134  0.0041950399999990
  0.9696846264687125  0.6873916690774635  0.0969199999999972
  0.1446845975777151  0.9289459858209455  0.0905571999999992
  0.9697088584588656  0.5256103054369277  0.1902296000000021
  0.1526003810272201  0.7720042825987861  0.1893707999999990
  0.4683443666061819  0.1036544737881044  0.0053962799999994
  0.3152870394789531  0.3502193330336993  0.0012498159999978
  0.2998951101155498  0.1888316977030655  0.0995351999999983
  0.4685105288243605  0.4305738848076146  0.0917847999999992
  0.3123722772350135  0.0032692640619274  0.1904499999999985
  0.4780187001981133  0.2637320131434180  0.1888963999999973
  0.4781860163205849  0.6073898738857650  0.9987279999999998
  0.3070216230286889  0.8589702721856156  0.9944920000000010
  0.3127576812688488  0.6807422574681610  0.0904876000000030
  0.4585050247003579  0.9333859220668330  0.0953355999999985
  0.3133542497882971  0.5056610712986043  0.1868643999999975
  0.4719930119804232  0.7508478814595492  0.1938871999999989
  0.7963924336606567  0.1120526786520273  0.0033586560000032
  0.6381425372152449  0.3586335268645158  0.9942479999999989
  0.6409846034887323  0.1794042030949896  0.0997276000000014
  0.8013022964270746  0.4252805374534745  0.0992835999999997
  0.6415361697407533  0.0022841638250455  0.1897856000000004
  0.7915737293333791  0.2668288761697468  0.1935828000000015
  0.8123116972859279  0.6019326396208982  0.0038650400000009
  0.6506808612622308  0.8485184843855507  0.9877120000000019
  0.6200666264664818  0.6845186515877231  0.0975115999999971
  0.8064071690190033  0.9359431574603079  0.0951787999999993
  0.6486211420993513  0.5140432871956264  0.1877867999999978
  0.8281732656965559  0.7761654112343592  0.1905855999999986
 
  0.00000000E+00  0.00000000E+00  0.00000000E+00
  0.00000000E+00  0.00000000E+00  0.00000000E+00
  0.00000000E+00  0.00000000E+00  0.00000000E+00
  0.00000000E+00  0.00000000E+00  0.00000000E+00
  0.00000000E+00  0.00000000E+00  0.00000000E+00
  0.00000000E+00  0.00000000E+00  0.00000000E+00
  0.00000000E+00  0.00000000E+00  0.00000000E+00
  0.00000000E+00  0.00000000E+00  0.00000000E+00
  0.00000000E+00  0.00000000E+00  0.00000000E+00
  0.00000000E+00  0.00000000E+00  0.00000000E+00
  0.00000000E+00  0.00000000E+00  0.00000000E+00
  0.00000000E+00  0.00000000E+00  0.00000000E+00
  0.00000000E+00  0.00000000E+00  0.00000000E+00
  0.00000000E+00  0.00000000E+00  0.00000000E+00
  0.00000000E+00  0.00000000E+00  0.00000000E+00
  0.00000000E+00  0.00000000E+00  0.00000000E+00
  0.00000000E+00  0.00000000E+00  0.00000000E+00
  0.00000000E+00  0.00000000E+00  0.00000000E+00
  0.00000000E+00  0.00000000E+00  0.00000000E+00
  0.00000000E+00  0.00000000E+00  0.00000000E+00
  0.00000000E+00  0.00000000E+00  0.00000000E+00
  0.00000000E+00  0.00000000E+00  0.00000000E+00
  0.00000000E+00  0.00000000E+00  0.00000000E+00
  0.00000000E+00  0.00000000E+00  0.00000000E+00
  0.00000000E+00  0.00000000E+00  0.00000000E+00
  0.00000000E+00  0.00000000E+00  0.00000000E+00
  0.00000000E+00  0.00000000E+00  0.00000000E+00
  0.00000000E+00  0.00000000E+00  0.00000000E+00
  0.00000000E+00  0.00000000E+00  0.00000000E+00
  0.00000000E+00  0.00000000E+00  0.00000000E+00
  0.00000000E+00  0.00000000E+00  0.00000000E+00
  0.00000000E+00  0.00000000E+00  0.00000000E+00
  0.00000000E+00  0.00000000E+00  0.00000000E+00
  0.00000000E+00  0.00000000E+00  0.00000000E+00
  0.00000000E+00  0.00000000E+00  0.00000000E+00
  0.00000000E+00  0.00000000E+00  0.00000000E+00
  0.00000000E+00  0.00000000E+00  0.00000000E+00
  0.00000000E+00  0.00000000E+00  0.00000000E+00
  0.00000000E+00  0.00000000E+00  0.00000000E+00
  0.00000000E+00  0.00000000E+00  0.00000000E+00
  0.00000000E+00  0.00000000E+00  0.00000000E+00
  0.00000000E+00  0.00000000E+00  0.00000000E+00
  0.00000000E+00  0.00000000E+00  0.00000000E+00
  0.00000000E+00  0.00000000E+00  0.00000000E+00
  0.00000000E+00  0.00000000E+00  0.00000000E+00
  0.00000000E+00  0.00000000E+00  0.00000000E+00
  0.00000000E+00  0.00000000E+00  0.00000000E+00
  0.00000000E+00  0.00000000E+00  0.00000000E+00
  0.00000000E+00  0.00000000E+00  0.00000000E+00
  0.00000000E+00  0.00000000E+00  0.00000000E+00
  0.00000000E+00  0.00000000E+00  0.00000000E+00
  0.00000000E+00  0.00000000E+00  0.00000000E+00
  0.00000000E+00  0.00000000E+00  0.00000000E+00
  0.00000000E+00  0.00000000E+00  0.00000000E+00
  0.00000000E+00  0.00000000E+00  0.00000000E+00
  0.00000000E+00  0.00000000E+00  0.00000000E+00
  0.00000000E+00  0.00000000E+00  0.00000000E+00
  0.00000000E+00  0.00000000E+00  0.00000000E+00
  0.00000000E+00  0.00000000E+00  0.00000000E+00
  0.00000000E+00  0.00000000E+00  0.00000000E+00
  0.00000000E+00  0.00000000E+00  0.00000000E+00
  0.00000000E+00  0.00000000E+00  0.00000000E+00
  0.00000000E+00  0.00000000E+00  0.00000000E+00
