 B Ag                                   
   1.0000000000000000     
     8.6662299995442087    0.0000000000000000    0.0000000000000000
     0.0000000000000000   10.0069004461921178    0.0000000000000000
     0.0000000000000000    0.0000000000000000   25.0000000000000000
   B    Ag
    32    36
Direct
  0.0709683449472678  0.0248213721457091  0.2836235999999985
  0.0673782025206719  0.1883570252482372  0.2941623999999976
  0.2336713888399586  0.9413534241349026  0.2881515999999991
  0.2279757172500538  0.1009323521734800  0.3046331999999978
  0.2216523217247897  0.2622130612879729  0.3108859999999964
  0.3891172978535451  0.8516723081064583  0.3026539999999969
  0.4068181897071099  0.0177591453972781  0.3012891999999994
  0.3984708460520423  0.1783369395544554  0.3065112000000028
  0.5665577765946921  0.9349908146193613  0.2982036000000008
  0.5541440742113437  0.2763712914774104  0.2886140000000026
  0.7410788774747274  0.8505560783547921  0.3064800000000005
  0.7274028037949094  0.0200162878682590  0.2966552000000036
  0.7284620879358172  0.1857728084731178  0.2825100000000020
  0.9073426392345425  0.9332789958506922  0.2824784000000022
  0.9019573678994348  0.1037574027625183  0.2964727999999965
  0.8946023819362949  0.2708491020345249  0.2837040000000002
  0.0650339305591530  0.5120936325443282  0.2830603999999965
  0.0568417870314875  0.6928409088588694  0.2905340000000010
  0.2250724940490372  0.4302970758181672  0.3022380000000027
  0.2235262622965095  0.5968481481468828  0.3015860000000004
  0.2254936691159557  0.7655037682437396  0.2935111999999975
  0.3934559779949680  0.3494298777930354  0.3078631999999999
  0.3999143803224996  0.5274220552487208  0.2970627999999991
  0.3949999019389097  0.6889625850753305  0.2986136000000030
  0.5586258384850851  0.4363858742755582  0.2863156000000018
  0.5682390151494943  0.7725878798906152  0.2958935999999994
  0.7262523612148541  0.3468106851528248  0.2971700000000013
  0.7287159468802642  0.5190558283185993  0.2884099999999989
  0.7294625229577889  0.6839520425732246  0.2872947999999980
  0.8957459010905851  0.4356553783503401  0.2973727999999980
  0.9028504898221641  0.6035445273464504  0.3022968000000006
  0.8909814302650716  0.7663102117617271  0.2819947999999997
  0.1666664743580526  0.0833332963072806  0.0000000000000000
  0.0000000000000000  0.3333329853670435  0.0000000000000000
  0.0000000000000000  0.1666669923387332  0.0943460000000016
  0.1666664743580526  0.4166664815364101  0.0943460000000016
  0.9852288711987853  0.0101781766040006  0.1914944000000034
  0.1543312374666215  0.2581678526624174  0.1948871999999966
  0.1666664743580526  0.5833334738751432  0.0000000000000000
  0.0000000000000000  0.8333329630728201  0.0000000000000000
  0.0000000000000000  0.6666669700445169  0.0943460000000016
  0.1666664743580526  0.9166664592421867  0.0943460000000016
  0.9862846936268213  0.4871748276315770  0.1905008000000024
  0.1634505430936528  0.7580169344930852  0.1874251999999998
  0.4999994230741507  0.0833332963072806  0.0000000000000000
  0.3333329487160981  0.3333329853670435  0.0000000000000000
  0.3333329487160981  0.1666669923387332  0.0943460000000016
  0.4999994230741507  0.4166664815364101  0.0943460000000016
  0.3210900241681074  0.0033481096549508  0.1925784000000021
  0.4881061315269122  0.2389930841082801  0.1945880000000031
  0.4999994230741507  0.5833334738751432  0.0000000000000000
  0.3333329487160981  0.8333329630728201  0.0000000000000000
  0.3333329487160981  0.6666669700445169  0.0943460000000016
  0.4999994230741507  0.9166664592421867  0.0943460000000016
  0.3185918213739072  0.4965223774051566  0.1870732000000004
  0.4996728681592515  0.7455305506550616  0.1904400000000024
  0.8333335256945418  0.0833332963072806  0.0000000000000000
  0.6666670513364963  0.3333329853670435  0.0000000000000000
  0.6666670513364963  0.1666669923387332  0.0943460000000016
  0.8333335256945418  0.4166664815364101  0.0943460000000016
  0.6557199613094582  0.0023406748299308  0.1923963999999998
  0.8259923865829180  0.2508339134077389  0.1841659999999976
  0.8333335256945418  0.5833334738751432  0.0000000000000000
  0.6666670513364963  0.8333329630728201  0.0000000000000000
  0.6666670513364963  0.6666669700445169  0.0943460000000016
  0.8333335256945418  0.9166664592421867  0.0943460000000016
  0.6536244711134955  0.5082472866945906  0.1924923999999990
  0.8216525525372020  0.7481927136438173  0.1861948000000027

  0.00000000E+00  0.00000000E+00  0.00000000E+00
  0.00000000E+00  0.00000000E+00  0.00000000E+00
  0.00000000E+00  0.00000000E+00  0.00000000E+00
  0.00000000E+00  0.00000000E+00  0.00000000E+00
  0.00000000E+00  0.00000000E+00  0.00000000E+00
  0.00000000E+00  0.00000000E+00  0.00000000E+00
  0.00000000E+00  0.00000000E+00  0.00000000E+00
  0.00000000E+00  0.00000000E+00  0.00000000E+00
  0.00000000E+00  0.00000000E+00  0.00000000E+00
  0.00000000E+00  0.00000000E+00  0.00000000E+00
  0.00000000E+00  0.00000000E+00  0.00000000E+00
  0.00000000E+00  0.00000000E+00  0.00000000E+00
  0.00000000E+00  0.00000000E+00  0.00000000E+00
  0.00000000E+00  0.00000000E+00  0.00000000E+00
  0.00000000E+00  0.00000000E+00  0.00000000E+00
  0.00000000E+00  0.00000000E+00  0.00000000E+00
  0.00000000E+00  0.00000000E+00  0.00000000E+00
  0.00000000E+00  0.00000000E+00  0.00000000E+00
  0.00000000E+00  0.00000000E+00  0.00000000E+00
  0.00000000E+00  0.00000000E+00  0.00000000E+00
  0.00000000E+00  0.00000000E+00  0.00000000E+00
  0.00000000E+00  0.00000000E+00  0.00000000E+00
  0.00000000E+00  0.00000000E+00  0.00000000E+00
  0.00000000E+00  0.00000000E+00  0.00000000E+00
  0.00000000E+00  0.00000000E+00  0.00000000E+00
  0.00000000E+00  0.00000000E+00  0.00000000E+00
  0.00000000E+00  0.00000000E+00  0.00000000E+00
  0.00000000E+00  0.00000000E+00  0.00000000E+00
  0.00000000E+00  0.00000000E+00  0.00000000E+00
  0.00000000E+00  0.00000000E+00  0.00000000E+00
  0.00000000E+00  0.00000000E+00  0.00000000E+00
  0.00000000E+00  0.00000000E+00  0.00000000E+00
  0.00000000E+00  0.00000000E+00  0.00000000E+00
  0.00000000E+00  0.00000000E+00  0.00000000E+00
  0.00000000E+00  0.00000000E+00  0.00000000E+00
  0.00000000E+00  0.00000000E+00  0.00000000E+00
  0.00000000E+00  0.00000000E+00  0.00000000E+00
  0.00000000E+00  0.00000000E+00  0.00000000E+00
  0.00000000E+00  0.00000000E+00  0.00000000E+00
  0.00000000E+00  0.00000000E+00  0.00000000E+00
  0.00000000E+00  0.00000000E+00  0.00000000E+00
  0.00000000E+00  0.00000000E+00  0.00000000E+00
  0.00000000E+00  0.00000000E+00  0.00000000E+00
  0.00000000E+00  0.00000000E+00  0.00000000E+00
  0.00000000E+00  0.00000000E+00  0.00000000E+00
  0.00000000E+00  0.00000000E+00  0.00000000E+00
  0.00000000E+00  0.00000000E+00  0.00000000E+00
  0.00000000E+00  0.00000000E+00  0.00000000E+00
  0.00000000E+00  0.00000000E+00  0.00000000E+00
  0.00000000E+00  0.00000000E+00  0.00000000E+00
  0.00000000E+00  0.00000000E+00  0.00000000E+00
  0.00000000E+00  0.00000000E+00  0.00000000E+00
  0.00000000E+00  0.00000000E+00  0.00000000E+00
  0.00000000E+00  0.00000000E+00  0.00000000E+00
  0.00000000E+00  0.00000000E+00  0.00000000E+00
  0.00000000E+00  0.00000000E+00  0.00000000E+00
  0.00000000E+00  0.00000000E+00  0.00000000E+00
  0.00000000E+00  0.00000000E+00  0.00000000E+00
  0.00000000E+00  0.00000000E+00  0.00000000E+00
  0.00000000E+00  0.00000000E+00  0.00000000E+00
  0.00000000E+00  0.00000000E+00  0.00000000E+00
  0.00000000E+00  0.00000000E+00  0.00000000E+00
  0.00000000E+00  0.00000000E+00  0.00000000E+00
  0.00000000E+00  0.00000000E+00  0.00000000E+00
  0.00000000E+00  0.00000000E+00  0.00000000E+00
  0.00000000E+00  0.00000000E+00  0.00000000E+00
  0.00000000E+00  0.00000000E+00  0.00000000E+00
  0.00000000E+00  0.00000000E+00  0.00000000E+00
