 B Ag                                   
   1.0000000000000000     
    11.5549733327256110    0.0000000000000000    0.0000000000000000
     0.0000000000000000   10.0069004461921178    0.0000000000000000
     0.0000000000000000    0.0000000000000000   25.0000000000000000
   B    Ag
    48    48
Direct
  0.0645541083065453  0.3539187802500479  0.2856012000000021
  0.0479625511926045  0.5159289859793290  0.2923287999999999
  0.1891557805511965  0.4356743652485306  0.3198111999999966
  0.1815252999381229  0.6039992135926511  0.3219479999999990
  0.3154001220996605  0.3554876976270549  0.2829508000000018
  0.3120751468795788  0.5180485234039338  0.2977611999999965
  0.4393337703015305  0.4287381515454740  0.3163440000000008
  0.4384692075100531  0.5941200306696715  0.3303751999999989
  0.0670173766482733  0.6821702720743659  0.2869671999999994
  0.0603161928575062  0.8418081148399494  0.2927436000000014
  0.1795218336095203  0.7683757864230429  0.3196036000000007
  0.1896092649383192  0.9327743440829295  0.3183131999999986
  0.3096960847036314  0.6899369127457646  0.2917828000000000
  0.3113672265958698  0.8510747204685956  0.2874491999999975
  0.4339023427947097  0.7644395026344952  0.3247783999999996
  0.4379438925806980  0.9341753773074899  0.3215959999999995
  0.0665782583695957  0.0148616448019752  0.2886840000000035
  0.0625178422484183  0.1873617120587454  0.2877772000000007
  0.1919987122529108  0.1015319384322098  0.3223547999999994
  0.1857909956330133  0.2729956208407671  0.3194056000000032
  0.3131119298867802  0.0151430506194004  0.2867480000000029
  0.3139003349949263  0.1834054420615701  0.2948847999999984
  0.4361109156113727  0.0990664397363190  0.3211516000000003
  0.4398357186689594  0.2661663333538513  0.3204735999999997
  0.5576135759441172  0.3414683715875526  0.2843391999999980
  0.5618481162230964  0.5156321907812611  0.2835024000000033
  0.6838198386509120  0.4410006898469021  0.3189619999999991
  0.6852330829336779  0.6022963886178658  0.3262100000000032
  0.8103956392075204  0.3482576866572202  0.2948880000000003
  0.8111589468972937  0.5143800548109496  0.3211915999999988
  0.9419407286016295  0.4325025539398553  0.3287276000000006
  0.9325162152891195  0.6039672356588568  0.3251515999999981
  0.5568191128384328  0.6825919810763423  0.2914975999999996
  0.5638065802842718  0.8546932235400178  0.2835972000000027
  0.6816761729507164  0.7639548370753531  0.3233296000000010
  0.6856857018925808  0.9312014294641955  0.3174112000000022
  0.8133285754440749  0.6774595227016249  0.2953747999999976
  0.8117647466510789  0.8476161070661590  0.2931260000000009
  0.9359519653213226  0.7664221345300248  0.3214031999999989
  0.9351211542304085  0.9310645239351203  0.3174976000000029
  0.5551929732136145  0.0162043182973477  0.2924276000000035
  0.5691272329789783  0.1773026532581454  0.2871871999999982
  0.6723191630393401  0.0975368951903022  0.3257327999999973
  0.6816052078367036  0.2663482078523316  0.3218979999999974
  0.8127210448338502  0.0159713790358325  0.2866455999999999
  0.8160373657717273  0.1763692973153965  0.2882239999999996
  0.9441994962550453  0.0961370611382577  0.3181215999999978
  0.9401319836224644  0.2641237428324530  0.3230336000000023
  0.1241699101058487  0.0426553658942836  0.9869640000000004
  0.9835159002759326  0.2878163938461071  0.9933959999999971
  0.9913480256642018  0.1306958140567573  0.0887296000000006
  0.1132784959609481  0.3770847946664517  0.0933315999999991
  0.0261042575620394  0.9631074129119952  0.1935807999999994
  0.0994922244211551  0.2118228327940059  0.1917335999999992
  0.0944216804819433  0.5448260457187430  0.9921719999999965
  0.0009211271799145  0.8111602632250410  0.0126155999999966
  0.9887257781585106  0.6267964824599375  0.1001860000000008
  0.1291807394978974  0.8744356004190834  0.1042672000000024
  0.0303016709704025  0.4548861082886191  0.1968159999999983
  0.0867730258762549  0.7230370721588670  0.1940907999999979
  0.3623046007508606  0.0212299503869673  0.0042910399999982
  0.2269680703262509  0.2937792791891596  0.0039343199999990
  0.2419209391061941  0.1238765196741554  0.0904767999999976
  0.3670800336671576  0.3725289384105466  0.0961748000000000
  0.2721373653969508  0.9822142283568098  0.1939360000000008
  0.3775447916997479  0.2113131844740863  0.1960592000000005
  0.3557662905510455  0.5326634384604390  0.0044396400000011
  0.2393696567145227  0.7749742332003535  0.9909000000000034
  0.2386582747179347  0.6092026230079810  0.0938159999999968
  0.3739212437438724  0.8757237115649161  0.0954047999999972
  0.2738067764327496  0.4539627454501769  0.1963567999999967
  0.3192625282441739  0.7203998919308958  0.1969044000000011
  0.6076093641960725  0.0376729040152952  0.9897360000000006
  0.4943776013589911  0.3103618364847236  0.9916040000000024
  0.5031729483557825  0.1182983688471140  0.0899211999999991
  0.6186124185813142  0.3921993649385627  0.0817335999999997
  0.5255953280999393  0.9804834226899430  0.1920544000000035
  0.6296769183701585  0.2266256182115782  0.1868255999999988
  0.6215496819589745  0.5572944419690060  0.9874879999999990
  0.4913036003226239  0.7834643746239465  0.9962119999999999
  0.4911270529658083  0.6327793540116176  0.0933875999999998
  0.6240403843752631  0.8731255044437631  0.0941004000000021
  0.5273616670963435  0.4833854424764112  0.1895596000000026
  0.5942964818924565  0.7316551253176584  0.1962660000000014
  0.8536791661874972  0.0422023784758139  0.9950880000000026
  0.7521653014451317  0.3009863060190767  0.9845479999999966
  0.7325763336922648  0.1322627328128974  0.0916208000000012
  0.8643533578492537  0.3803065714966891  0.0827991999999966
  0.7668256554868194  0.9863034066413334  0.1934040000000010
  0.8517276255520798  0.2388751654773955  0.2013948000000028
  0.8611815634240614  0.5551818997174180  0.9983440000000030
  0.7480216311292125  0.7994273594521601  0.0013608519999977
  0.7384543221604503  0.6308596786732537  0.0918940000000035
  0.8708804174822191  0.8872957263583743  0.1009379999999993
  0.7742865121688354  0.4801027077098752  0.1830720000000028
  0.8447505432448779  0.7374811051316357  0.1960875999999985

  0.00000000E+00  0.00000000E+00  0.00000000E+00
  0.00000000E+00  0.00000000E+00  0.00000000E+00
  0.00000000E+00  0.00000000E+00  0.00000000E+00
  0.00000000E+00  0.00000000E+00  0.00000000E+00
  0.00000000E+00  0.00000000E+00  0.00000000E+00
  0.00000000E+00  0.00000000E+00  0.00000000E+00
  0.00000000E+00  0.00000000E+00  0.00000000E+00
  0.00000000E+00  0.00000000E+00  0.00000000E+00
  0.00000000E+00  0.00000000E+00  0.00000000E+00
  0.00000000E+00  0.00000000E+00  0.00000000E+00
  0.00000000E+00  0.00000000E+00  0.00000000E+00
  0.00000000E+00  0.00000000E+00  0.00000000E+00
  0.00000000E+00  0.00000000E+00  0.00000000E+00
  0.00000000E+00  0.00000000E+00  0.00000000E+00
  0.00000000E+00  0.00000000E+00  0.00000000E+00
  0.00000000E+00  0.00000000E+00  0.00000000E+00
  0.00000000E+00  0.00000000E+00  0.00000000E+00
  0.00000000E+00  0.00000000E+00  0.00000000E+00
  0.00000000E+00  0.00000000E+00  0.00000000E+00
  0.00000000E+00  0.00000000E+00  0.00000000E+00
  0.00000000E+00  0.00000000E+00  0.00000000E+00
  0.00000000E+00  0.00000000E+00  0.00000000E+00
  0.00000000E+00  0.00000000E+00  0.00000000E+00
  0.00000000E+00  0.00000000E+00  0.00000000E+00
  0.00000000E+00  0.00000000E+00  0.00000000E+00
  0.00000000E+00  0.00000000E+00  0.00000000E+00
  0.00000000E+00  0.00000000E+00  0.00000000E+00
  0.00000000E+00  0.00000000E+00  0.00000000E+00
  0.00000000E+00  0.00000000E+00  0.00000000E+00
  0.00000000E+00  0.00000000E+00  0.00000000E+00
  0.00000000E+00  0.00000000E+00  0.00000000E+00
  0.00000000E+00  0.00000000E+00  0.00000000E+00
  0.00000000E+00  0.00000000E+00  0.00000000E+00
  0.00000000E+00  0.00000000E+00  0.00000000E+00
  0.00000000E+00  0.00000000E+00  0.00000000E+00
  0.00000000E+00  0.00000000E+00  0.00000000E+00
  0.00000000E+00  0.00000000E+00  0.00000000E+00
  0.00000000E+00  0.00000000E+00  0.00000000E+00
  0.00000000E+00  0.00000000E+00  0.00000000E+00
  0.00000000E+00  0.00000000E+00  0.00000000E+00
  0.00000000E+00  0.00000000E+00  0.00000000E+00
  0.00000000E+00  0.00000000E+00  0.00000000E+00
  0.00000000E+00  0.00000000E+00  0.00000000E+00
  0.00000000E+00  0.00000000E+00  0.00000000E+00
  0.00000000E+00  0.00000000E+00  0.00000000E+00
  0.00000000E+00  0.00000000E+00  0.00000000E+00
  0.00000000E+00  0.00000000E+00  0.00000000E+00
  0.00000000E+00  0.00000000E+00  0.00000000E+00
  0.00000000E+00  0.00000000E+00  0.00000000E+00
  0.00000000E+00  0.00000000E+00  0.00000000E+00
  0.00000000E+00  0.00000000E+00  0.00000000E+00
  0.00000000E+00  0.00000000E+00  0.00000000E+00
  0.00000000E+00  0.00000000E+00  0.00000000E+00
  0.00000000E+00  0.00000000E+00  0.00000000E+00
  0.00000000E+00  0.00000000E+00  0.00000000E+00
  0.00000000E+00  0.00000000E+00  0.00000000E+00
  0.00000000E+00  0.00000000E+00  0.00000000E+00
  0.00000000E+00  0.00000000E+00  0.00000000E+00
  0.00000000E+00  0.00000000E+00  0.00000000E+00
  0.00000000E+00  0.00000000E+00  0.00000000E+00
  0.00000000E+00  0.00000000E+00  0.00000000E+00
  0.00000000E+00  0.00000000E+00  0.00000000E+00
  0.00000000E+00  0.00000000E+00  0.00000000E+00
  0.00000000E+00  0.00000000E+00  0.00000000E+00
  0.00000000E+00  0.00000000E+00  0.00000000E+00
  0.00000000E+00  0.00000000E+00  0.00000000E+00
  0.00000000E+00  0.00000000E+00  0.00000000E+00
  0.00000000E+00  0.00000000E+00  0.00000000E+00
  0.00000000E+00  0.00000000E+00  0.00000000E+00
  0.00000000E+00  0.00000000E+00  0.00000000E+00
  0.00000000E+00  0.00000000E+00  0.00000000E+00
  0.00000000E+00  0.00000000E+00  0.00000000E+00
  0.00000000E+00  0.00000000E+00  0.00000000E+00
  0.00000000E+00  0.00000000E+00  0.00000000E+00
  0.00000000E+00  0.00000000E+00  0.00000000E+00
  0.00000000E+00  0.00000000E+00  0.00000000E+00
  0.00000000E+00  0.00000000E+00  0.00000000E+00
  0.00000000E+00  0.00000000E+00  0.00000000E+00
  0.00000000E+00  0.00000000E+00  0.00000000E+00
  0.00000000E+00  0.00000000E+00  0.00000000E+00
  0.00000000E+00  0.00000000E+00  0.00000000E+00
  0.00000000E+00  0.00000000E+00  0.00000000E+00
  0.00000000E+00  0.00000000E+00  0.00000000E+00
  0.00000000E+00  0.00000000E+00  0.00000000E+00
  0.00000000E+00  0.00000000E+00  0.00000000E+00
  0.00000000E+00  0.00000000E+00  0.00000000E+00
  0.00000000E+00  0.00000000E+00  0.00000000E+00
  0.00000000E+00  0.00000000E+00  0.00000000E+00
  0.00000000E+00  0.00000000E+00  0.00000000E+00
  0.00000000E+00  0.00000000E+00  0.00000000E+00
  0.00000000E+00  0.00000000E+00  0.00000000E+00
  0.00000000E+00  0.00000000E+00  0.00000000E+00
  0.00000000E+00  0.00000000E+00  0.00000000E+00
  0.00000000E+00  0.00000000E+00  0.00000000E+00
  0.00000000E+00  0.00000000E+00  0.00000000E+00
  0.00000000E+00  0.00000000E+00  0.00000000E+00
