 B Ag                                   
   1.0000000000000000     
    11.5549733327256110    0.0000000000000000    0.0000000000000000
     0.0000000000000000   10.0069004461921178    0.0000000000000000
     0.0000000000000000    0.0000000000000000   25.0000000000000000
   B    Ag
    48    48
Direct
  0.0433842628247518  0.5031597972892783  0.2984879999999990
  0.0464127423367628  0.6661653162080441  0.2909531999999970
  0.1747879412477715  0.5829197593566207  0.3297516000000016
  0.1678411489282539  0.7551958811457666  0.3231875999999971
  0.2884775156130743  0.4996032514645847  0.2933111999999980
  0.2947354270697105  0.6662622493198711  0.2916635999999997
  0.4207149475829439  0.5780900920425651  0.3193448000000032
  0.4176392156901372  0.7503752076255878  0.3260500000000022
  0.0483232616745752  0.8332889934138450  0.2840320000000034
  0.0300551104706059  0.0034076039819979  0.2910340000000033
  0.1577294856093019  0.9178456455510187  0.3237451999999976
  0.1663024175536307  0.0897866432099761  0.3286591999999970
  0.3028808374735092  0.8371723137495408  0.2955240000000003
  0.2862931747865574  0.9979513690275681  0.3077967999999984
  0.4236816355200688  0.9125582940594654  0.3241152000000014
  0.4207391795730970  0.0776224370549770  0.3202799999999968
  0.0418887163182973  0.1714726762024412  0.2934479999999979
  0.0420656963892228  0.3374881181400298  0.2830403999999973
  0.1623655845822256  0.2537179233122231  0.3182175999999970
  0.1734742212102702  0.4167824015464276  0.3251887999999994
  0.2895670897416736  0.1599016607194201  0.2841080000000034
  0.3000275206331651  0.3233398810548991  0.2830427999999969
  0.4151104344321794  0.2479029359129896  0.3148648000000023
  0.4220598230363564  0.4078935352607829  0.3185032000000021
  0.5351280199399184  0.4938732054520045  0.2901007999999976
  0.5499311696378513  0.6653248961353952  0.2914931999999979
  0.6778276136577190  0.5843267884437751  0.3216200000000029
  0.6626869469541035  0.7491150771718296  0.3246048000000030
  0.7895085291251007  0.4941220337493775  0.2896792000000019
  0.7983445512482206  0.6636910235803626  0.2908935999999969
  0.9144287654974264  0.5886707908882585  0.3252883999999980
  0.9147403196565236  0.7499085296542134  0.3143123999999986
  0.5480454015471281  0.8292977475515784  0.2907123999999968
  0.5374387132865124  0.9966432716731077  0.2857616000000007
  0.6737081753319600  0.9191537429054790  0.3250051999999997
  0.6620837434849705  0.0871898351234250  0.3211459999999988
  0.7899983614974531  0.8336677320672763  0.2912192000000005
  0.7864042381010492  0.0067353077179391  0.2898423999999977
  0.9067437629065083  0.9195134946607197  0.3221928000000034
  0.9203829116489501  0.0737998747935009  0.3215119999999985
  0.5408692707493969  0.1668028985573784  0.2841892000000001
  0.5531237343403177  0.3310015941310169  0.2735464000000007
  0.6610383061955787  0.2484565538918773  0.3155411999999984
  0.6655688229256995  0.4122855046059684  0.3245495999999974
  0.7915370928720762  0.1685556890537327  0.2882031999999981
  0.7956842249008673  0.3255573509017680  0.2887315999999984
  0.9131652402966708  0.2458373612516667  0.3206187999999983
  0.9151643794841746  0.4114151052203781  0.3193359999999998
  0.1202088451442904  0.0374515567547817  0.9914930799999979
  0.0032390094028543  0.2844776976954222  0.9980479999999972
  0.9850130910960075  0.1168293825132309  0.0944831999999991
  0.1377813651452584  0.3609199491311372  0.0924535999999989
  0.0043631688752797  0.9574063469019194  0.1966200000000029
  0.0767689352850098  0.2059808640131280  0.1956580000000017
  0.1346346681384389  0.5356134028533859  0.9945159999999973
  0.0153290416320360  0.7744905669516413  0.9927160000000015
  0.0032736265316373  0.5979333992751847  0.0889471999999998
  0.1268129278888068  0.8526406399143056  0.0963279999999997
  0.0097519048080272  0.4619932040754122  0.1968940000000003
  0.0936661616461478  0.7029988993921634  0.1980867999999987
  0.3701090324360976  0.0418273372709805  0.9883999999999986
  0.2524471425423798  0.2675983452017832  0.9971320000000006
  0.2386236575891445  0.1047307311225225  0.0867608000000004
  0.3886646788946493  0.3486064459977172  0.0904251999999985
  0.2460343194344219  0.9643935254369680  0.1994940000000014
  0.3337402769315077  0.2202819955942346  0.1947207999999989
  0.3856123135637688  0.5332989998946900  0.0013767880000017
  0.2601148365689099  0.7809091378513315  0.0034040800000028
  0.2433021625448291  0.6014319850948624  0.0940060000000003
  0.3654495669012476  0.8601084867667694  0.1034792000000024
  0.2641416740751623  0.4687905136285337  0.1925007999999977
  0.3308852292347240  0.7163496867531833  0.1960747999999981
  0.6348971813913735  0.0232058869026091  0.9889719999999969
  0.5094144166762433  0.2821553002532795  0.9956839999999971
  0.4993010225008518  0.1120956490005725  0.0875392000000019
  0.6361581103074769  0.3693421374454076  0.0948607999999993
  0.5065117704273803  0.9651020365326985  0.1942787999999993
  0.5936396218737059  0.2088159077064802  0.1843167999999977
  0.6251559213504549  0.5286272236287672  0.9959277999999969
  0.4917934326949762  0.7929388368222874  0.9925039999999967
  0.4920452723069033  0.6149576517813458  0.0941931999999994
  0.6256388302970421  0.8693760917058455  0.0947943999999978
  0.5128631481317427  0.4529944136423367  0.1954283999999973
  0.5781519184539903  0.7076496901390357  0.1993724000000014
  0.8715035258003994  0.0131908976920272  0.9935680000000033
  0.7550255417112339  0.2894632574367435  0.0007519999999985
  0.7528602403055444  0.1089718045925920  0.0872948000000022
  0.8742902046678296  0.3705353141002803  0.0993876000000000
  0.7528939920061148  0.9599316043616000  0.1830804000000015
  0.8402581053564191  0.1945157754358107  0.1909368000000029
  0.8820704043629135  0.5343352848118599  0.9951952799999972
  0.7635413553930590  0.7799847757024594  0.9976873560000001
  0.7472254371670957  0.6146918352066422  0.0837056000000018
  0.8774057462587450  0.8554007353253184  0.0968475999999967
  0.7588654467220337  0.4527695687953113  0.1926776000000032
  0.8240668087940861  0.7012501061375360  0.1992851999999985

  0.00000000E+00  0.00000000E+00  0.00000000E+00
  0.00000000E+00  0.00000000E+00  0.00000000E+00
  0.00000000E+00  0.00000000E+00  0.00000000E+00
  0.00000000E+00  0.00000000E+00  0.00000000E+00
  0.00000000E+00  0.00000000E+00  0.00000000E+00
  0.00000000E+00  0.00000000E+00  0.00000000E+00
  0.00000000E+00  0.00000000E+00  0.00000000E+00
  0.00000000E+00  0.00000000E+00  0.00000000E+00
  0.00000000E+00  0.00000000E+00  0.00000000E+00
  0.00000000E+00  0.00000000E+00  0.00000000E+00
  0.00000000E+00  0.00000000E+00  0.00000000E+00
  0.00000000E+00  0.00000000E+00  0.00000000E+00
  0.00000000E+00  0.00000000E+00  0.00000000E+00
  0.00000000E+00  0.00000000E+00  0.00000000E+00
  0.00000000E+00  0.00000000E+00  0.00000000E+00
  0.00000000E+00  0.00000000E+00  0.00000000E+00
  0.00000000E+00  0.00000000E+00  0.00000000E+00
  0.00000000E+00  0.00000000E+00  0.00000000E+00
  0.00000000E+00  0.00000000E+00  0.00000000E+00
  0.00000000E+00  0.00000000E+00  0.00000000E+00
  0.00000000E+00  0.00000000E+00  0.00000000E+00
  0.00000000E+00  0.00000000E+00  0.00000000E+00
  0.00000000E+00  0.00000000E+00  0.00000000E+00
  0.00000000E+00  0.00000000E+00  0.00000000E+00
  0.00000000E+00  0.00000000E+00  0.00000000E+00
  0.00000000E+00  0.00000000E+00  0.00000000E+00
  0.00000000E+00  0.00000000E+00  0.00000000E+00
  0.00000000E+00  0.00000000E+00  0.00000000E+00
  0.00000000E+00  0.00000000E+00  0.00000000E+00
  0.00000000E+00  0.00000000E+00  0.00000000E+00
  0.00000000E+00  0.00000000E+00  0.00000000E+00
  0.00000000E+00  0.00000000E+00  0.00000000E+00
  0.00000000E+00  0.00000000E+00  0.00000000E+00
  0.00000000E+00  0.00000000E+00  0.00000000E+00
  0.00000000E+00  0.00000000E+00  0.00000000E+00
  0.00000000E+00  0.00000000E+00  0.00000000E+00
  0.00000000E+00  0.00000000E+00  0.00000000E+00
  0.00000000E+00  0.00000000E+00  0.00000000E+00
  0.00000000E+00  0.00000000E+00  0.00000000E+00
  0.00000000E+00  0.00000000E+00  0.00000000E+00
  0.00000000E+00  0.00000000E+00  0.00000000E+00
  0.00000000E+00  0.00000000E+00  0.00000000E+00
  0.00000000E+00  0.00000000E+00  0.00000000E+00
  0.00000000E+00  0.00000000E+00  0.00000000E+00
  0.00000000E+00  0.00000000E+00  0.00000000E+00
  0.00000000E+00  0.00000000E+00  0.00000000E+00
  0.00000000E+00  0.00000000E+00  0.00000000E+00
  0.00000000E+00  0.00000000E+00  0.00000000E+00
  0.00000000E+00  0.00000000E+00  0.00000000E+00
  0.00000000E+00  0.00000000E+00  0.00000000E+00
  0.00000000E+00  0.00000000E+00  0.00000000E+00
  0.00000000E+00  0.00000000E+00  0.00000000E+00
  0.00000000E+00  0.00000000E+00  0.00000000E+00
  0.00000000E+00  0.00000000E+00  0.00000000E+00
  0.00000000E+00  0.00000000E+00  0.00000000E+00
  0.00000000E+00  0.00000000E+00  0.00000000E+00
  0.00000000E+00  0.00000000E+00  0.00000000E+00
  0.00000000E+00  0.00000000E+00  0.00000000E+00
  0.00000000E+00  0.00000000E+00  0.00000000E+00
  0.00000000E+00  0.00000000E+00  0.00000000E+00
  0.00000000E+00  0.00000000E+00  0.00000000E+00
  0.00000000E+00  0.00000000E+00  0.00000000E+00
  0.00000000E+00  0.00000000E+00  0.00000000E+00
  0.00000000E+00  0.00000000E+00  0.00000000E+00
  0.00000000E+00  0.00000000E+00  0.00000000E+00
  0.00000000E+00  0.00000000E+00  0.00000000E+00
  0.00000000E+00  0.00000000E+00  0.00000000E+00
  0.00000000E+00  0.00000000E+00  0.00000000E+00
  0.00000000E+00  0.00000000E+00  0.00000000E+00
  0.00000000E+00  0.00000000E+00  0.00000000E+00
  0.00000000E+00  0.00000000E+00  0.00000000E+00
  0.00000000E+00  0.00000000E+00  0.00000000E+00
  0.00000000E+00  0.00000000E+00  0.00000000E+00
  0.00000000E+00  0.00000000E+00  0.00000000E+00
  0.00000000E+00  0.00000000E+00  0.00000000E+00
  0.00000000E+00  0.00000000E+00  0.00000000E+00
  0.00000000E+00  0.00000000E+00  0.00000000E+00
  0.00000000E+00  0.00000000E+00  0.00000000E+00
  0.00000000E+00  0.00000000E+00  0.00000000E+00
  0.00000000E+00  0.00000000E+00  0.00000000E+00
  0.00000000E+00  0.00000000E+00  0.00000000E+00
  0.00000000E+00  0.00000000E+00  0.00000000E+00
  0.00000000E+00  0.00000000E+00  0.00000000E+00
  0.00000000E+00  0.00000000E+00  0.00000000E+00
  0.00000000E+00  0.00000000E+00  0.00000000E+00
  0.00000000E+00  0.00000000E+00  0.00000000E+00
  0.00000000E+00  0.00000000E+00  0.00000000E+00
  0.00000000E+00  0.00000000E+00  0.00000000E+00
  0.00000000E+00  0.00000000E+00  0.00000000E+00
  0.00000000E+00  0.00000000E+00  0.00000000E+00
  0.00000000E+00  0.00000000E+00  0.00000000E+00
  0.00000000E+00  0.00000000E+00  0.00000000E+00
  0.00000000E+00  0.00000000E+00  0.00000000E+00
  0.00000000E+00  0.00000000E+00  0.00000000E+00
  0.00000000E+00  0.00000000E+00  0.00000000E+00
  0.00000000E+00  0.00000000E+00  0.00000000E+00
