 B Ag                                   
   1.0000000000000000     
     8.6662299995442087    0.0000000000000000    0.0000000000000000
     0.0000000000000000   10.0069004461921178    0.0000000000000000
     0.0000000000000000    0.0000000000000000   25.0000000000000000
   B    Ag
    32    36
Direct
  0.0586244537736391  0.0691819613598170  0.3106295999999986
  0.0645521755168517  0.2406289552841798  0.3171552000000020
  0.2238182000826185  0.9954910667459203  0.3078056000000018
  0.2080535596326030  0.1536499746617395  0.2812863999999990
  0.2218588705932234  0.3205258228806045  0.3076671999999974
  0.4039322750704883  0.9070051259932086  0.3005840000000006
  0.3911966333894128  0.0743029276645757  0.2916623999999999
  0.3959241792775501  0.2368645528897986  0.2987019999999987
  0.5563145681863446  0.9906384152919401  0.2760639999999981
  0.5555737616302849  0.3203739276950586  0.2793052000000031
  0.7245468906699060  0.9066573659631487  0.3003596000000002
  0.7177965505562582  0.0742798435936152  0.2976340000000022
  0.7220036856082857  0.2419790236767483  0.2974052000000000
  0.8969078827135704  0.9995102933002613  0.2902896000000013
  0.8900398443620432  0.1580189598670074  0.3153896000000032
  0.8933769355772014  0.3250177232689069  0.3097524000000007
  0.0569126367550723  0.5753379911150063  0.3082604000000018
  0.0613852851849046  0.7463959534884950  0.3066651999999976
  0.2217388645467580  0.4862914372103830  0.2906880000000029
  0.2253552006008022  0.6562361677635025  0.2999148000000034
  0.2279191759396966  0.8247019188784250  0.2930840000000003
  0.3935275200611272  0.4007574594714853  0.2996440000000007
  0.3924820827717355  0.5656586702782676  0.2919156000000029
  0.3958768692015369  0.7407668378294687  0.2826775999999995
  0.5567461283919002  0.4927389881125777  0.2726731999999998
  0.5612659715073107  0.8238954753604375  0.2774232000000012
  0.7108892794587760  0.4107195851602583  0.3062231999999980
  0.7215778949241951  0.5669927497039353  0.2951564000000033
  0.7219159888820244  0.7371573285519233  0.2893716000000026
  0.8906144886999243  0.4915528066307289  0.3071484000000027
  0.8908995030602753  0.6607220722892251  0.3042432000000019
  0.8957747486979102  0.8287091537075923  0.2847715999999991
  0.1666664743580526  0.0833332963072806  0.0000000000000000
  0.0000000000000000  0.3333329853670435  0.0000000000000000
  0.0000000000000000  0.1666669923387332  0.0943460000000016
  0.1666664743580526  0.4166664815364101  0.0943460000000016
  0.0184767771001262  0.9931027148153149  0.1906540000000021
  0.1656521924845649  0.2358612452168600  0.1923484000000002
  0.1666664743580526  0.5833334738751432  0.0000000000000000
  0.0000000000000000  0.8333329630728201  0.0000000000000000
  0.0000000000000000  0.6666669700445169  0.0943460000000016
  0.1666664743580526  0.9166664592421867  0.0943460000000016
  0.0282303839169842  0.4929698288221900  0.1956076000000024
  0.2003916351275379  0.7548830969807909  0.1937584000000001
  0.4999994230741507  0.0833332963072806  0.0000000000000000
  0.3333329487160981  0.3333329853670435  0.0000000000000000
  0.3333329487160981  0.1666669923387332  0.0943460000000016
  0.4999994230741507  0.4166664815364101  0.0943460000000016
  0.3508826791072863  0.0092932772240601  0.1847872000000024
  0.5074928775524441  0.2457524198650134  0.1906036000000029
  0.4999994230741507  0.5833334738751432  0.0000000000000000
  0.3333329487160981  0.8333329630728201  0.0000000000000000
  0.3333329487160981  0.6666669700445169  0.0943460000000016
  0.4999994230741507  0.9166664592421867  0.0943460000000016
  0.3405690825370726  0.4907543575961881  0.1866296000000034
  0.5143574541910922  0.7422358241633518  0.1925132000000005
  0.8333335256945418  0.0833332963072806  0.0000000000000000
  0.6666670513364963  0.3333329853670435  0.0000000000000000
  0.6666670513364963  0.1666669923387332  0.0943460000000016
  0.8333335256945418  0.4166664815364101  0.0943460000000016
  0.6852229862711141  0.0064372380185418  0.1908340000000024
  0.8621869025392783  0.2597077900369200  0.1986923999999988
  0.8333335256945418  0.5833334738751432  0.0000000000000000
  0.6666670513364963  0.8333329630728201  0.0000000000000000
  0.6666670513364963  0.6666669700445169  0.0943460000000016
  0.8333335256945418  0.9166664592421867  0.0943460000000016
  0.6789780562377743  0.4907603534587750  0.1881460000000033
  0.8464545714094598  0.7463889583154781  0.1847887999999998

  0.00000000E+00  0.00000000E+00  0.00000000E+00
  0.00000000E+00  0.00000000E+00  0.00000000E+00
  0.00000000E+00  0.00000000E+00  0.00000000E+00
  0.00000000E+00  0.00000000E+00  0.00000000E+00
  0.00000000E+00  0.00000000E+00  0.00000000E+00
  0.00000000E+00  0.00000000E+00  0.00000000E+00
  0.00000000E+00  0.00000000E+00  0.00000000E+00
  0.00000000E+00  0.00000000E+00  0.00000000E+00
  0.00000000E+00  0.00000000E+00  0.00000000E+00
  0.00000000E+00  0.00000000E+00  0.00000000E+00
  0.00000000E+00  0.00000000E+00  0.00000000E+00
  0.00000000E+00  0.00000000E+00  0.00000000E+00
  0.00000000E+00  0.00000000E+00  0.00000000E+00
  0.00000000E+00  0.00000000E+00  0.00000000E+00
  0.00000000E+00  0.00000000E+00  0.00000000E+00
  0.00000000E+00  0.00000000E+00  0.00000000E+00
  0.00000000E+00  0.00000000E+00  0.00000000E+00
  0.00000000E+00  0.00000000E+00  0.00000000E+00
  0.00000000E+00  0.00000000E+00  0.00000000E+00
  0.00000000E+00  0.00000000E+00  0.00000000E+00
  0.00000000E+00  0.00000000E+00  0.00000000E+00
  0.00000000E+00  0.00000000E+00  0.00000000E+00
  0.00000000E+00  0.00000000E+00  0.00000000E+00
  0.00000000E+00  0.00000000E+00  0.00000000E+00
  0.00000000E+00  0.00000000E+00  0.00000000E+00
  0.00000000E+00  0.00000000E+00  0.00000000E+00
  0.00000000E+00  0.00000000E+00  0.00000000E+00
  0.00000000E+00  0.00000000E+00  0.00000000E+00
  0.00000000E+00  0.00000000E+00  0.00000000E+00
  0.00000000E+00  0.00000000E+00  0.00000000E+00
  0.00000000E+00  0.00000000E+00  0.00000000E+00
  0.00000000E+00  0.00000000E+00  0.00000000E+00
  0.00000000E+00  0.00000000E+00  0.00000000E+00
  0.00000000E+00  0.00000000E+00  0.00000000E+00
  0.00000000E+00  0.00000000E+00  0.00000000E+00
  0.00000000E+00  0.00000000E+00  0.00000000E+00
  0.00000000E+00  0.00000000E+00  0.00000000E+00
  0.00000000E+00  0.00000000E+00  0.00000000E+00
  0.00000000E+00  0.00000000E+00  0.00000000E+00
  0.00000000E+00  0.00000000E+00  0.00000000E+00
  0.00000000E+00  0.00000000E+00  0.00000000E+00
  0.00000000E+00  0.00000000E+00  0.00000000E+00
  0.00000000E+00  0.00000000E+00  0.00000000E+00
  0.00000000E+00  0.00000000E+00  0.00000000E+00
  0.00000000E+00  0.00000000E+00  0.00000000E+00
  0.00000000E+00  0.00000000E+00  0.00000000E+00
  0.00000000E+00  0.00000000E+00  0.00000000E+00
  0.00000000E+00  0.00000000E+00  0.00000000E+00
  0.00000000E+00  0.00000000E+00  0.00000000E+00
  0.00000000E+00  0.00000000E+00  0.00000000E+00
  0.00000000E+00  0.00000000E+00  0.00000000E+00
  0.00000000E+00  0.00000000E+00  0.00000000E+00
  0.00000000E+00  0.00000000E+00  0.00000000E+00
  0.00000000E+00  0.00000000E+00  0.00000000E+00
  0.00000000E+00  0.00000000E+00  0.00000000E+00
  0.00000000E+00  0.00000000E+00  0.00000000E+00
  0.00000000E+00  0.00000000E+00  0.00000000E+00
  0.00000000E+00  0.00000000E+00  0.00000000E+00
  0.00000000E+00  0.00000000E+00  0.00000000E+00
  0.00000000E+00  0.00000000E+00  0.00000000E+00
  0.00000000E+00  0.00000000E+00  0.00000000E+00
  0.00000000E+00  0.00000000E+00  0.00000000E+00
  0.00000000E+00  0.00000000E+00  0.00000000E+00
  0.00000000E+00  0.00000000E+00  0.00000000E+00
  0.00000000E+00  0.00000000E+00  0.00000000E+00
  0.00000000E+00  0.00000000E+00  0.00000000E+00
  0.00000000E+00  0.00000000E+00  0.00000000E+00
  0.00000000E+00  0.00000000E+00  0.00000000E+00
